objective value:                                   -3
t_n_18                                              1 	(obj:-1)
t_n_1624                                            1 	(obj:-1)
t_n_1988                                            1 	(obj:-1)
